p td 20 47
0 11
0 16
0 8
1 6
1 19
1 12
1 14
2 16
2 18
3 6
4 16
5 8
6 19
6 12
6 14
6 9
7 16
8 16
8 11
8 1
8 6
8 13
8 17
8 15
8 12
10 18
11 1
11 6
11 13
11 19
11 15
11 12
11 14
12 16
14 18
14 16
15 18
15 16
16 11
16 1
16 6
16 19
18 8
18 16
18 11
18 1
18 6
